40 
300 
4.6 7.1 0 0
5 5.6 0 -25
5.7 11.4 -20 -110
4.4 12.3 20 -22
2.8 14.3 30 -22
3.2 10.3 15 -19
3.5 9.8 15 -10
4.4 8.4 -10 -136
7.8 11 20 -21
8.8 9.8 20 -11
7.7 8.2 20 -18
6.3 7.9 -15 -122
5.4 8.2 10 -19
5.8 6.8 10 -11
6.7 5.8 -25 -124
13.8 13.1 40 -28
14.1 14.2 40 -28
11.2 13.6 30 -16
9.7 16.4 -30 -64
9.5 18.8 -50 -97
4.7 16.8 -30 -113
